
Gurobi 9.1.2 (linux64) logging started Fri Jun 17 21:11:30 2022

Changed value of parameter LogFile to ls3_sym_v-(1, 4).log
   Prev:   Default: 
Changed value of parameter MIPFocus to 1
   Prev: 0  Min: 0  Max: 3  Default: 0
Changed value of parameter TimeLimit to 10800.0
   Prev: inf  Min: 0.0  Max: inf  Default: inf
Warning: variable name "X[(5, 5),(7, 5)]" has a space
Warning: constraint name "flow-constr-t0-v(7, 5)" has a space
Warning: to let Gurobi read it back, use rlp format
Gurobi Optimizer version 9.1.2 build v9.1.2rc0 (linux64)
Thread count: 32 physical cores, 64 logical processors, using up to 32 threads
Optimize a model with 5095 rows, 4608 columns and 17600 nonzeros
Model fingerprint: 0x70fd3ade
Variable types: 512 continuous, 4096 integer (4096 binary)
Coefficient statistics:
  Matrix range     [1e+00, 7e+04]
  Objective range  [1e-01, 1e-01]
  Bounds range     [1e+00, 3e+04]
  RHS range        [1e+00, 7e+04]
Presolve removed 339 rows and 352 columns
Presolve time: 0.13s
Presolved: 4756 rows, 4256 columns, 24386 nonzeros
Variable types: 512 continuous, 3744 integer (3744 binary)
Found heuristic solution: objective 41315.999995

Root relaxation: objective 6.400000e+01, 147 iterations, 0.00 seconds

    Nodes    |    Current Node    |     Objective Bounds      |     Work
 Expl Unexpl |  Obj  Depth IntInf | Incumbent    BestBd   Gap | It/Node Time

     0     0   64.00000    0   36 41316.0000   64.00000   100%     -    0s
H    0     0                    41314.999995   64.00000   100%     -    0s
H    0     0                    41251.499995   64.00000   100%     -    0s
     0     0   64.00000    0   76 41251.5000   64.00000   100%     -    0s
H    0     0                     647.8750000   64.00000  90.1%     -    0s
     0     0   64.00000    0   76  647.87500   64.00000  90.1%     -    0s
H    0     0                     334.7500000   64.00000  80.9%     -    0s
     0     0   64.00000    0   30  334.75000   64.00000  80.9%     -    0s
H    0     0                     213.1250000   64.00000  70.0%     -    0s
H    0     0                     165.0937500   64.00000  61.2%     -    0s
     0     0   64.00000    0   30  165.09375   64.00000  61.2%     -    0s
H    0     0                     132.1250000   64.00000  51.6%     -    0s
     0     0   64.00000    0   34  132.12500   64.00000  51.6%     -    0s
H    0     0                      99.5855263   64.00000  35.7%     -    1s
     0     0   64.00000    0   70   99.58553   64.00000  35.7%     -    1s
     0     0   64.00000    0   28   99.58553   64.00000  35.7%     -    1s
     0     0   64.00000    0   62   99.58553   64.00000  35.7%     -    1s
     0     0   64.00000    0   31   99.58553   64.00000  35.7%     -    1s
H    0     0                      99.4605263   64.00000  35.7%     -    1s
H    0     0                      97.5000000   64.00000  34.4%     -    1s
     0     2   64.00000    0   22   97.50000   64.00000  34.4%     -    2s
H    1     4                      96.9484375   64.00000  34.0%   446    2s
H    2     4                      95.5295455   64.00000  33.0%   224    2s
H   49    76                      88.8070175   64.00000  27.9%  15.8    4s
H   50    76                      82.2678571   64.00000  22.2%  15.5    4s
   113   140   64.00000    8   24   82.26786   64.00000  22.2%   9.7    5s
H  115   140                      81.8607955   64.00000  21.8%   9.5    5s
H  117   140                      81.7678571   64.00000  21.7%   9.4    5s
H  120   140                      81.2261905   64.00000  21.2%   9.2    5s
H  123   140                      77.7333333   64.00000  17.7%   9.0    5s
H  241   266                      72.2500000   64.00000  11.4%   7.1    7s
H  264   266                      72.0468750   64.00000  11.2%   6.7    7s
H  267   266                      72.0000000   64.00000  11.1%   6.7    7s
H  742   732                      71.3250000   64.00000  10.3%   7.7    9s
H  743   732                      71.1916667   64.00000  10.1%   7.6    9s
H  744   732                      70.1093750   64.00000  8.71%   7.6    9s
H  748   732                      69.8750000   64.00000  8.41%   7.6    9s
H  752   732                      69.6916667   64.00000  8.17%   7.6    9s
H  756   732                      69.5708333   64.00000  8.01%   7.6    9s
H  768   732                      69.4267578   64.00000  7.82%   7.5    9s
H  779   763                      69.2382812   64.00000  7.57%   7.5   10s
H  780   763                      68.4687500   64.00000  6.53%   7.5   10s
H  785   763                      67.9500000   64.00000  5.81%   7.5   10s
H  865  1465                      67.5000000   64.00000  5.19%   7.3   12s
H  973  1465                      67.2500000   64.00000  4.83%   7.2   12s
H 1682  1494                      67.0000000   64.00000  4.48%  12.8   16s
  4736  3663   64.00000  136   44   67.00000   64.00000  4.48%  16.4   20s
  4838  3764   64.00000   21   88   67.00000   64.00000  4.48%  22.3   26s
H 4855  3575                      66.0454545   64.00000  3.10%  22.3   26s
H 4903  3448                      65.7625000   64.00000  2.68%  22.3   27s
H 4908  3281                      65.6807692   64.00000  2.56%  22.4   27s
H 4910  3122                      65.4625000   64.00000  2.23%  22.4   27s
H 4912  2973                      65.3500000   64.00000  2.07%  22.4   27s
H 4916  2829                      65.2500000   64.00000  1.92%  22.4   27s
H 4934  2720                      65.0000000   64.00000  1.54%  22.4   29s
H 4947  2588                      64.9000000   64.00000  1.39%  24.1   29s
H 4966  2492                      64.0000000   64.00000  0.00%  27.5   31s

Cutting planes:
  Learned: 2
  Cover: 53
  Implied bound: 59
  Clique: 25
  MIR: 26
  Flow cover: 52
  RLT: 5
  Relax-and-lift: 65

Explored 4998 nodes (147109 simplex iterations) in 31.48 seconds
Thread count was 32 (of 64 available processors)

Solution count 10: 64 64.9 65 ... 67

Optimal solution found (tolerance 1.00e-04)
Best objective 6.400000000000e+01, best bound 6.400000000000e+01, gap 0.0000%
